
  32    1
  10

   0   0  11 2 3 4 5 6 7 10 11 14 15 31 
   4   2   6 22 20 16 12 9 8 
   8   5   5 30 23 22 16 12 
   9   5   7 29 28 26 24 23 20 19 
   1  10   5 22 21 18 17 13 
  10   5   3 26 18 12 
   2   5   6 29 27 26 25 24 21 
   6   7   5 27 26 24 21 19 
   2   4   4 28 26 19 18 
   7   6   4 28 25 20 18 
   8   7   4 29 25 24 20 
   8   4   3 29 27 19 
   1   6   3 28 25 24 
   1   5   3 29 26 24 
   3   7   3 27 26 24 
  10   9   2 26 18 
   3   7   2 26 24 
   2   4   1 24 
   8   6   1 25 
   8   6   1 27 
   5   7   1 28 
   1   6   1 24 
   2   7   1 27 
  10   6   1 32
   7   6   1 32
   1   7   1 32
   8   4   1 32
   5   6   1 32
   6   6   1 32
   2   9   1 32
   9   6   1 32
   0   0   0 
